\ Generated by MPModelProtoExporter
\   Name             : 
\   Format           : Free
\   Constraints      : 20
\   Variables        : 39
\     Binary         : 0
\     Integer        : 0
\     Continuous     : 39
Minimize
 Obj: +1 Total_slack 
Subject to
 auto_c_000000000: -1 Gen_up_3 +1 Gen_up_3_delta  = -0.6
 auto_c_000000001: -1 Gen_up_4 +1 Gen_up_4_delta  = -0.22107
 auto_c_000000002: -1 Gen_down_0 +1 Gen_down_0_delta  = -0.6
 auto_c_000000003: -1 Gen_down_1 +1 Gen_down_1_delta  = -0.6
 auto_c_000000004: -1 Gen_down_2 +1 Gen_down_2_delta  = -0.6
 Balance_equality: +1 Gen_up_3_delta +1 Gen_up_4_delta +1 Gen_down_0_delta +1 Gen_down_1_delta +1 Gen_down_2_delta -1 Total_slack  = 0
 Node_power_balance_0: +21.384 theta0 -16.9005 theta1 -4.4835 theta4 -1 Node_balance_slack_0  = -0.6
 Node_power_balance_1: -16.9005 theta0 +33.3743 theta1 -5.05127 theta2 -5.67151 theta3 -5.75109 theta4 -1 Node_balance_slack_1  = -0.383
 Node_power_balance_2: -5.05127 theta1 +10.8982 theta2 -5.84693 theta3 -1 Node_balance_slack_2  = 0.342
 Node_power_balance_3: -5.67151 theta1 -5.84693 theta2 +42.0108 theta3 -23.7473 theta4 -4.88951 theta6 -1.8555 theta8 -1 Node_balance_slack_3  = 0.478
 Node_power_balance_4: -4.4835 theta0 -5.75109 theta1 -23.7473 theta3 +38.2394 theta4 -4.25745 theta5 -1 Node_balance_slack_4  = 0.076
 Node_power_balance_5: -4.25745 theta4 +20.8706 theta5 -5.02765 theta10 -3.90915 theta11 -7.67636 theta12 -1 Node_balance_slack_5  = -0.488
 Node_power_balance_6: -4.88951 theta3 +19.6566 theta6 -5.67698 theta7 -9.09008 theta8 -1 Node_balance_slack_6  = 0
 Node_power_balance_7: -5.67698 theta6 +5.67698 theta7 -1 Node_balance_slack_7  = -0.22107
 Node_power_balance_8: -1.8555 theta3 -9.09008 theta6 +26.4784 theta8 -11.8343 theta9 -3.6985 theta13 -1 Node_balance_slack_8  = 0.295
 Node_power_balance_9: -11.8343 theta8 +17.0408 theta9 -5.20644 theta10 -1 Node_balance_slack_9  = 0.09
 Node_power_balance_10: -5.02765 theta5 -5.20644 theta9 +10.2341 theta10 -1 Node_balance_slack_10  = 0.035
 Node_power_balance_11: -3.90915 theta5 +8.91215 theta11 -5.003 theta12 -1 Node_balance_slack_11  = 0.061
 Node_power_balance_12: -7.67636 theta5 -5.003 theta11 +15.5528 theta12 -2.8734 theta13 -1 Node_balance_slack_12  = 0.135
 Node_power_balance_13: -3.6985 theta8 -2.8734 theta12 +6.5719 theta13 -1 Node_balance_slack_13  = 0.149
Bounds
 0 <= Gen_up_3 <= 1
 0 <= Gen_up_3_delta <= 0.4
 0 <= Gen_up_4 <= 1
 0 <= Gen_up_4_delta <= 0.77893
 0 <= Gen_down_0 <= 1
 -0.6 <= Gen_down_0_delta <= 0
 0 <= Gen_down_1 <= 1
 -0.6 <= Gen_down_1_delta <= 0
 0 <= Gen_down_2 <= 1
 -0.6 <= Gen_down_2_delta <= 0
 0 <= Total_slack <= 99999
 -6.28 <= theta0 <= 6.28
 -6.28 <= theta1 <= 6.28
 -6.28 <= theta2 <= 6.28
 -6.28 <= theta3 <= 6.28
 -6.28 <= theta4 <= 6.28
 -6.28 <= theta5 <= 6.28
 -6.28 <= theta6 <= 6.28
 -6.28 <= theta7 <= 6.28
 -6.28 <= theta8 <= 6.28
 -6.28 <= theta9 <= 6.28
 -6.28 <= theta10 <= 6.28
 -6.28 <= theta11 <= 6.28
 -6.28 <= theta12 <= 6.28
 -6.28 <= theta13 <= 6.28
 -99999 <= Node_balance_slack_0 <= 99999
 -99999 <= Node_balance_slack_1 <= 99999
 -99999 <= Node_balance_slack_2 <= 99999
 -99999 <= Node_balance_slack_3 <= 99999
 -99999 <= Node_balance_slack_4 <= 99999
 -99999 <= Node_balance_slack_5 <= 99999
 -99999 <= Node_balance_slack_6 <= 99999
 -99999 <= Node_balance_slack_7 <= 99999
 -99999 <= Node_balance_slack_8 <= 99999
 -99999 <= Node_balance_slack_9 <= 99999
 -99999 <= Node_balance_slack_10 <= 99999
 -99999 <= Node_balance_slack_11 <= 99999
 -99999 <= Node_balance_slack_12 <= 99999
 -99999 <= Node_balance_slack_13 <= 99999
End
